Please solve the following SAT Problem encoded in DIMACS format, provide line of thoughts, write your final answer as a single solution at the end of response with header 'answer: ' : 
p cnf 5 14
-1 -2 -4 0
-1 -3 5 0
-1 -3 4 0
-2 -4 5 0
-1 5 -3 0
-4 -2 5 0
-3 -1 -2 0
5 -3 -4 0
-3 -1 -4 0
2 -4 -5 0
5 -3 -2 0
-3 -5 -4 0
-3 -4 5 0
-3 -2 -4 0

